NAME: VRP-45-7
COMMENT: generated clustered CVRP instance (deterministic)
TYPE: CVRP
DIMENSION: 46
CAPACITY: 150
NODE_COORD_SECTION
1 50.0 50.0
2 71 26
3 92 89
4 39 67
5 81 46
6 74 83
7 74 25
8 70 75
9 43 60
10 71 46
11 90 91
12 84 44
13 80 62
14 30 64
15 77 63
16 77 93
17 80 36
18 68 76
19 35 66
20 85 46
21 86 78
22 65 37
23 83 74
24 34 66
25 78 44
26 66 85
27 68 36
28 83 82
29 22 73
30 81 46
31 76 76
32 68 33
33 85 85
34 34 72
35 84 46
36 77 87
37 70 39
38 81 85
39 30 81
40 79 47
41 74 74
42 74 46
43 86 71
44 33 65
45 76 42
46 71 78
DEMAND_SECTION
1 0
2 6
3 29
4 34
5 30
6 31
7 26
8 26
9 35
10 9
11 31
12 13
13 23
14 5
15 21
16 6
17 10
18 15
19 5
20 16
21 9
22 26
23 9
24 18
25 23
26 5
27 17
28 21
29 26
30 6
31 22
32 29
33 23
34 26
35 33
36 23
37 11
38 5
39 26
40 8
41 6
42 16
43 14
44 33
45 9
46 6
DEPOT_SECTION
1
EOF
