NAME: VRP-45-6
COMMENT: generated clustered CVRP instance (deterministic)
TYPE: CVRP
DIMENSION: 46
CAPACITY: 190
NODE_COORD_SECTION
1 50.0 50.0
2 70 68
3 48 16
4 46 29
5 55 53
6 54 29
7 72 79
8 54 40
9 45 8
10 71 51
11 52 35
12 69 67
13 43 28
14 43 28
15 73 47
16 59 45
17 79 88
18 47 36
19 26 20
20 56 51
21 57 43
22 84 70
23 43 35
24 31 29
25 44 44
26 45 55
27 84 72
28 43 39
29 37 13
30 70 36
31 52 46
32 62 81
33 39 32
34 34 29
35 65 43
36 65 56
37 95 69
38 37 35
39 39 15
40 46 40
41 49 53
42 84 84
43 44 27
44 37 22
45 52 50
46 43 46
DEMAND_SECTION
1 0
2 25
3 35
4 15
5 9
6 9
7 29
8 6
9 13
10 19
11 23
12 13
13 30
14 14
15 33
16 5
17 28
18 5
19 26
20 18
21 9
22 5
23 35
24 10
25 6
26 14
27 9
28 22
29 9
30 23
31 34
32 29
33 28
34 29
35 24
36 33
37 34
38 9
39 19
40 17
41 6
42 35
43 29
44 11
45 25
46 34
DEPOT_SECTION
1
EOF
