NAME: VRP-55-8
COMMENT: generated clustered CVRP instance (deterministic)
TYPE: CVRP
DIMENSION: 56
CAPACITY: 185
NODE_COORD_SECTION
1 50.0 50.0
2 95 56
3 42 60
4 40 63
5 52 37
6 80 37
7 29 40
8 84 49
9 49 61
10 36 64
11 50 40
12 82 36
13 39 44
14 94 39
15 56 54
16 43 60
17 44 35
18 83 38
19 36 36
20 90 43
21 53 49
22 33 72
23 50 26
24 76 33
25 27 44
26 72 41
27 48 50
28 31 70
29 61 29
30 52 42
31 31 43
32 93 46
33 43 46
34 24 72
35 49 27
36 73 39
37 39 43
38 68 49
39 45 53
40 45 58
41 41 36
42 71 34
43 34 37
44 75 49
45 54 48
46 41 68
47 51 27
48 69 53
49 32 31
50 77 38
51 49 57
52 44 65
53 54 29
54 91 39
55 33 51
56 88 45
DEMAND_SECTION
1 0
2 31
3 18
4 34
5 30
6 12
7 16
8 30
9 16
10 13
11 21
12 24
13 31
14 29
15 8
16 21
17 5
18 35
19 18
20 35
21 25
22 32
23 30
24 24
25 27
26 31
27 29
28 31
29 8
30 9
31 6
32 16
33 29
34 20
35 19
36 17
37 31
38 18
39 28
40 20
41 14
42 12
43 7
44 26
45 35
46 31
47 12
48 26
49 23
50 16
51 14
52 24
53 17
54 7
55 24
56 5
DEPOT_SECTION
1
EOF
