NAME: VRP-32-5
COMMENT: generated clustered CVRP instance (deterministic)
TYPE: CVRP
DIMENSION: 33
CAPACITY: 160
NODE_COORD_SECTION
1 50.0 50.0
2 29 39
3 71 88
4 59 69
5 60 26
6 42 28
7 79 60
8 61 48
9 73 10
10 49 45
11 79 81
12 57 58
13 67 16
14 34 46
15 71 79
16 41 61
17 71 13
18 44 39
19 83 76
20 51 56
21 63 3
22 33 44
23 68 67
24 59 56
25 59 14
26 21 32
27 78 85
28 72 54
29 63 5
30 56 40
31 78 75
32 53 61
33 66 16
DEMAND_SECTION
1 0
2 31
3 34
4 28
5 18
6 8
7 17
8 13
9 32
10 15
11 27
12 27
13 5
14 15
15 18
16 26
17 11
18 27
19 23
20 26
21 21
22 8
23 20
24 27
25 8
26 35
27 9
28 11
29 29
30 11
31 25
32 9
33 10
DEPOT_SECTION
1
EOF
