NAME: VRP-54-8
COMMENT: generated clustered CVRP instance (deterministic)
TYPE: CVRP
DIMENSION: 55
CAPACITY: 175
NODE_COORD_SECTION
1 50.0 50.0
2 27 67
3 87 27
4 48 19
5 68 16
6 63 21
7 22 78
8 40 73
9 81 20
10 55 44
11 68 12
12 66 27
13 17 80
14 51 69
15 78 18
16 50 39
17 54 23
18 66 37
19 11 83
20 24 60
21 73 24
22 51 30
23 58 7
24 77 34
25 17 77
26 35 62
27 78 15
28 65 21
29 67 26
30 65 30
31 29 82
32 38 46
33 85 29
34 64 39
35 79 25
36 56 26
37 11 73
38 37 71
39 85 28
40 40 30
41 67 23
42 69 38
43 21 78
44 33 68
45 82 13
46 49 39
47 59 13
48 72 30
49 14 99
50 41 62
51 98 21
52 62 30
53 70 16
54 63 21
55 20 78
DEMAND_SECTION
1 0
2 21
3 21
4 21
5 28
6 35
7 11
8 32
9 10
10 26
11 33
12 11
13 14
14 22
15 8
16 25
17 28
18 29
19 6
20 26
21 26
22 5
23 5
24 14
25 9
26 28
27 9
28 9
29 33
30 26
31 10
32 18
33 35
34 19
35 28
36 18
37 12
38 32
39 32
40 12
41 16
42 22
43 24
44 27
45 11
46 12
47 33
48 8
49 23
50 22
51 27
52 25
53 23
54 11
55 34
DEPOT_SECTION
1
EOF
