NAME: VRP-60-9
COMMENT: generated clustered CVRP instance (deterministic)
TYPE: CVRP
DIMENSION: 61
CAPACITY: 160
NODE_COORD_SECTION
1 50.0 50.0
2 75 51
3 75 73
4 52 27
5 60 30
6 37 40
7 63 64
8 86 66
9 85 66
10 63 23
11 64 23
12 36 41
13 60 48
14 63 59
15 87 63
16 63 10
17 63 20
18 28 38
19 64 65
20 69 48
21 83 66
22 71 18
23 45 32
24 42 60
25 64 67
26 72 54
27 78 63
28 67 18
29 68 47
30 40 52
31 42 53
32 70 46
33 71 59
34 65 29
35 53 33
36 26 41
37 63 64
38 76 57
39 76 62
40 65 25
41 52 40
42 42 31
43 49 58
44 67 54
45 80 69
46 66 31
47 63 37
48 43 45
49 59 70
50 66 49
51 74 61
52 60 13
53 79 33
54 43 43
55 56 57
56 56 54
57 75 68
58 57 13
59 53 31
60 29 45
61 56 62
DEMAND_SECTION
1 0
2 22
3 6
4 23
5 25
6 16
7 8
8 23
9 8
10 7
11 17
12 15
13 23
14 17
15 13
16 17
17 5
18 19
19 12
20 15
21 18
22 13
23 33
24 33
25 27
26 6
27 28
28 17
29 28
30 35
31 15
32 35
33 16
34 21
35 9
36 24
37 24
38 34
39 5
40 13
41 18
42 26
43 17
44 32
45 27
46 19
47 19
48 25
49 15
50 11
51 13
52 18
53 29
54 24
55 8
56 8
57 7
58 26
59 25
60 7
61 35
DEPOT_SECTION
1
EOF
