NAME: VRP-60-10
COMMENT: generated clustered CVRP instance (deterministic)
TYPE: CVRP
DIMENSION: 61
CAPACITY: 165
NODE_COORD_SECTION
1 50.0 50.0
2 23 27
3 70 33
4 54 48
5 70 60
6 26 43
7 47 72
8 39 6
9 84 29
10 57 39
11 75 62
12 28 48
13 52 62
14 41 27
15 81 33
16 61 43
17 74 58
18 25 29
19 40 68
20 33 29
21 79 28
22 54 47
23 70 55
24 23 43
25 50 65
26 39 7
27 74 38
28 64 46
29 75 66
30 30 33
31 71 66
32 37 16
33 84 27
34 58 41
35 65 57
36 20 36
37 58 66
38 40 16
39 81 37
40 65 39
41 84 65
42 29 40
43 56 74
44 38 7
45 64 32
46 52 46
47 66 57
48 24 28
49 60 76
50 31 12
51 70 41
52 62 37
53 59 46
54 14 38
55 59 62
56 37 21
57 73 32
58 61 42
59 57 58
60 23 44
61 56 68
DEMAND_SECTION
1 0
2 15
3 13
4 11
5 28
6 14
7 34
8 34
9 23
10 9
11 34
12 19
13 30
14 9
15 17
16 18
17 22
18 27
19 31
20 20
21 34
22 25
23 20
24 9
25 15
26 18
27 8
28 18
29 21
30 32
31 27
32 20
33 33
34 33
35 23
36 14
37 10
38 25
39 28
40 11
41 19
42 34
43 25
44 19
45 16
46 24
47 24
48 23
49 20
50 24
51 20
52 35
53 10
54 20
55 18
56 33
57 12
58 33
59 20
60 32
61 24
DEPOT_SECTION
1
EOF
