NAME: VRP-37-6
COMMENT: generated clustered CVRP instance (deterministic)
TYPE: CVRP
DIMENSION: 38
CAPACITY: 145
NODE_COORD_SECTION
1 50.0 50.0
2 72 47
3 78 32
4 50 89
5 67 95
6 71 55
7 84 35
8 57 83
9 63 81
10 81 49
11 86 30
12 64 74
13 63 75
14 74 58
15 74 26
16 48 73
17 64 84
18 74 59
19 70 32
20 48 73
21 68 80
22 85 60
23 71 25
24 48 89
25 70 67
26 88 56
27 87 23
28 43 72
29 72 81
30 73 65
31 72 30
32 58 72
33 59 90
34 91 55
35 79 25
36 58 86
37 56 83
38 72 58
DEMAND_SECTION
1 0
2 22
3 18
4 14
5 27
6 9
7 22
8 16
9 12
10 12
11 26
12 15
13 11
14 11
15 26
16 24
17 10
18 23
19 25
20 29
21 35
22 15
23 6
24 16
25 26
26 6
27 20
28 10
29 18
30 27
31 30
32 30
33 10
34 13
35 8
36 12
37 30
38 23
DEPOT_SECTION
1
EOF
