NAME: VRP-48-7
COMMENT: generated clustered CVRP instance (deterministic)
TYPE: CVRP
DIMENSION: 49
CAPACITY: 170
NODE_COORD_SECTION
1 50.0 50.0
2 21 64
3 18 26
4 49 31
5 54 37
6 31 69
7 10 77
8 2 10
9 50 40
10 54 40
11 20 63
12 27 88
13 21 36
14 46 37
15 58 40
16 44 78
17 10 81
18 9 34
19 36 45
20 58 45
21 21 65
22 28 95
23 21 20
24 41 52
25 59 39
26 34 54
27 20 71
28 20 21
29 30 45
30 49 50
31 36 66
32 31 78
33 15 34
34 50 37
35 47 33
36 12 68
37 26 85
38 19 25
39 29 47
40 55 38
41 38 55
42 23 81
43 21 34
44 43 48
45 64 38
46 40 49
47 15 85
48 19 31
49 45 53
DEMAND_SECTION
1 0
2 28
3 18
4 8
5 9
6 21
7 33
8 19
9 33
10 29
11 28
12 7
13 25
14 6
15 5
16 5
17 25
18 27
19 6
20 16
21 16
22 8
23 5
24 16
25 25
26 24
27 29
28 32
29 14
30 21
31 17
32 30
33 10
34 22
35 5
36 35
37 30
38 8
39 29
40 35
41 5
42 29
43 5
44 29
45 20
46 15
47 35
48 10
49 30
DEPOT_SECTION
1
EOF
